SCIP Status        : problem creation / modification
Total Time         :       0.06
  reading          :       0.06
Original Problem   :
  Problem name     : main4.zpl
  Variables        : 4860 (4860 binary, 0 integer, 0 implicit integer, 0 continuous)
  Constraints      : 0 initial, 4940 maximal
  Objective        : minimize, 4860 non-zeros (abs.min = 0.00085, abs.max = 5700)
